countingBound/py/fractions/foo.lp
Minimize
 obj: x__E_4_
Subject To
1 x__0_1_ + 1 x__0_2_ + 1 x__0_3_ + 1 x__0_4_ + 1 x__0_5_ = 1
1 x__0_1_ + 2 x__0_2_ + 3 x__0_3_ + 4 x__0_4_ + 5 x__0_5_ + -1 x__E_0_ = 0
1 x__1_1_ + 1 x__1_2_ + 1 x__1_3_ + 1 x__1_4_ + 1 x__1_5_ = 4
1 x__1_1_ + 2 x__1_2_ + 3 x__1_3_ + 4 x__1_4_ + 5 x__1_5_ + -4 x__E_1_ = 0
1 x__2_1_ + 1 x__2_2_ + 1 x__2_3_ + 1 x__2_4_ + 1 x__2_5_ = 6
1 x__2_1_ + 2 x__2_2_ + 3 x__2_3_ + 4 x__2_4_ + 5 x__2_5_ + -6 x__E_2_ = 0
1 x__3_1_ + 1 x__3_2_ + 1 x__3_3_ + 1 x__3_4_ + 1 x__3_5_ = 4
1 x__3_1_ + 2 x__3_2_ + 3 x__3_3_ + 4 x__3_4_ + 5 x__3_5_ + -4 x__E_3_ = 0
1 x__4_1_ + 1 x__4_2_ + 1 x__4_3_ + 1 x__4_4_ + 1 x__4_5_ = 1
1 x__4_1_ + 2 x__4_2_ + 3 x__4_3_ + 4 x__4_4_ + 5 x__4_5_ + -1 x__E_4_ = 0
1 x__0_1_ + 1 x__1_1_ + 1 x__2_1_ + 1 x__3_1_ + 1 x__4_1_ <= 64
1 x__0_2_ + 1 x__1_2_ + 1 x__2_2_ + 1 x__3_2_ + 1 x__4_2_ <= 8192
1 x__0_3_ + 1 x__1_3_ + 1 x__2_3_ + 1 x__3_3_ + 1 x__4_3_ <= 2097152
1 x__0_4_ + 1 x__1_4_ + 1 x__2_4_ + 1 x__3_4_ + 1 x__4_4_ <= 1073741824
1 x__0_5_ + 1 x__1_5_ + 1 x__2_5_ + 1 x__3_5_ + 1 x__4_5_ <= 1099511627776
Bounds
0 <= x__E_0_
0 <= x__E_1_
0 <= x__E_2_
0 <= x__E_3_
0 <= x__E_4_
0 <= x__0_1_
0 <= x__0_2_
0 <= x__0_3_
0 <= x__0_4_
0 <= x__0_5_
0 <= x__1_1_
0 <= x__1_2_
0 <= x__1_3_
0 <= x__1_4_
0 <= x__1_5_
0 <= x__2_1_
0 <= x__2_2_
0 <= x__2_3_
0 <= x__2_4_
0 <= x__2_5_
0 <= x__3_1_
0 <= x__3_2_
0 <= x__3_3_
0 <= x__3_4_
0 <= x__3_5_
0 <= x__4_1_
0 <= x__4_2_
0 <= x__4_3_
0 <= x__4_4_
0 <= x__4_5_
End
